# Components (V)
1 2 3 4 5 6 7 8 9 10 11 12 13 14 15 16 17 18 19 20 21 22 23 24 25 26 27 28 29 30 31 32 33 34 35 36 37 38 39 40 41 42 43 44 45 46 47 48 49 50 51 52 53 54 55 56 57 58 59 60 61 62 63 64 65 66 67 68 69 70 71 72 73 74 75 76 77 78 79 80 81 82 83 84 85 86 87 88 89 90 91 92 93 94 95 96 97 98 99 100 101 102 103 104 105 106 107 108 109 110 111 112 113 114 115 116 117 118 119 120 121 122 123 124 125 126 127 128 129 130 131 132 133 134 135 136 137 138 139 140 141 142 143 144 145 146 147 148 149 150 151 152 153 154 155 156 157 158 159 160 161 162 163 164 165 166 167 168 169 170 171 172 173 174 175 176 177 178 179 180 181 182 183 184 185 186 187 188 189 190 191 192 193 194 195 196 197 198 199 200 201 202 203 204 205 206 207 208 209 210 211 212 213 214 215 216 217 218 219 220 221 222 223 224 225 226 227 228 229 230 231 232 233 234 235 236 237 238 239 240 241 242 243 244 245 246 247 248 249 250 251 252 253 254 255 256 257 258 259

# Precedence arcs (E)
1 17
2 18
3 21
4 23
5 24
6 25
7 26
8 27
9 19
9 20
10 22
10 198
11 32
11 33
11 35
12 29
15 28
15 31
16 30
16 34
17 42
18 38
19 36
20 37
21 43
22 39
23 44
24 40
25 41
26 42
27 42
29 49
30 51
30 217
31 50
32 48
34 45
34 46
35 47
36 52
37 53
38 54
39 55
40 59
41 56
42 58
42 110
43 66
43 67
44 70
45 57
45 68
46 60
46 69
47 61
47 64
48 62
49 65
51 63
52 71
53 72
54 73
55 77
56 74
57 75
58 76
59 78
60 79
61 80
62 84
63 155
64 89
64 91
65 90
66 81
66 85
68 86
68 87
68 156
69 88
70 82
70 83
71 97
72 92
73 97
74 93
75 97
76 99
77 94
78 95
79 101
80 96
81 107
82 108
82 213
84 104
84 220
85 109
85 110
85 119
86 100
86 102
87 98
87 103
89 106
90 111
91 105
92 117
93 118
94 119
95 113
96 116
97 119
98 112
98 124
99 122
99 125
100 114
102 115
106 120
106 121
108 126
109 123
110 155
112 127
113 128
114 129
115 131
116 130
118 133
118 134
118 136
118 141
120 139
120 140
121 132
121 137
122 142
123 138
123 193
124 132
124 135
125 143
125 256
126 144
127 146
128 156
129 157
130 152
131 149
132 145
132 150
133 147
133 162
134 148
134 164
135 151
135 163
136 153
136 161
137 160
137 238
139 154
139 155
141 158
141 165
143 159
145 167
146 168
147 169
148 170
149 173
150 174
151 175
152 172
153 176
154 166
155 171
157 180
158 179
158 182
158 219
159 177
161 181
164 178
166 184
167 185
168 191
169 192
170 187
171 188
172 189
173 190
174 191
175 191
176 195
177 183
177 197
177 199
177 202
178 186
178 200
179 194
179 198
181 193
182 196
182 201
183 203
184 209
185 204
186 205
187 206
188 211
189 212
190 213
191 210
191 214
192 219
193 207
194 208
195 220
195 221
195 222
199 215
200 217
202 216
202 218
203 233
204 224
205 223
206 227
207 228
208 230
209 225
209 229
209 231
209 236
209 237
210 226
210 238
213 243
214 232
216 242
218 234
218 235
218 240
219 239
219 241
220 233
223 244
224 256
225 245
226 246
227 258
228 248
229 249
230 251
231 250
232 254
233 252
234 247
235 253
236 255
236 256
237 257
239 259

# Target components (T)
165 245

# Revenues (r)
1 24
2 23
3 27
4 25
5 26
6 28
7 24
8 26
9 27
10 29
11 28
12 20
13 28
14 29
15 21
16 22
17 21
18 21
19 21
20 25
21 30
22 30
23 30
24 30
25 26
26 29
27 21
28 20
29 26
30 24
31 22
32 20
33 28
34 26
35 23
36 21
37 21
38 22
39 22
40 21
41 28
42 20
43 23
44 20
45 24
46 28
47 24
48 27
49 26
50 29
51 28
52 27
53 23
54 22
55 23
56 29
57 25
58 27
59 28
60 30
61 30
62 26
63 29
64 22
65 22
66 28
67 23
68 30
69 30
70 26
71 21
72 20
73 20
74 28
75 29
76 20
77 25
78 22
79 24
80 30
81 26
82 21
83 29
84 28
85 22
86 22
87 27
88 20
89 28
90 21
91 20
92 23
93 26
94 29
95 26
96 22
97 29
98 30
99 22
100 24
101 29
102 26
103 20
104 23
105 27
106 26
107 20
108 30
109 23
110 20
111 27
112 27
113 23
114 21
115 24
116 21
117 23
118 24
119 24
120 26
121 29
122 22
123 25
124 22
125 28
126 28
127 28
128 21
129 24
130 26
131 30
132 26
133 20
134 28
135 22
136 23
137 30
138 21
139 20
140 28
141 23
142 22
143 25
144 25
145 22
146 27
147 27
148 27
149 22
150 24
151 28
152 23
153 24
154 29
155 20
156 27
157 22
158 22
159 25
160 30
161 23
162 25
163 26
164 24
165 27
166 28
167 21
168 24
169 25
170 23
171 27
172 23
173 25
174 30
175 22
176 22
177 23
178 20
179 26
180 23
181 22
182 22
183 25
184 24
185 26
186 29
187 24
188 25
189 20
190 26
191 25
192 21
193 30
194 25
195 22
196 30
197 27
198 20
199 30
200 25
201 26
202 26
203 28
204 22
205 24
206 30
207 30
208 22
209 29
210 29
211 29
212 27
213 26
214 27
215 29
216 24
217 22
218 21
219 25
220 23
221 24
222 29
223 30
224 24
225 23
226 25
227 28
228 30
229 26
230 20
231 27
232 26
233 23
234 28
235 28
236 27
237 28
238 30
239 22
240 26
241 26
242 25
243 22
244 30
245 22
246 22
247 27
248 28
249 23
250 20
251 20
252 27
253 20
254 28
255 21
256 25
257 26
258 23
259 27

# Costs (c)
1 9
2 9
3 4
4 5
5 6
6 9
7 10
8 4
9 1
10 2
11 3
12 3
13 4
14 9
15 8
16 10
17 8
18 8
19 7
20 1
21 4
22 10
23 10
24 10
25 6
26 5
27 5
28 10
29 6
30 5
31 2
32 7
33 6
34 3
35 3
36 4
37 3
38 8
39 4
40 3
41 7
42 7
43 6
44 5
45 2
46 2
47 1
48 1
49 6
50 7
51 5
52 2
53 9
54 2
55 10
56 9
57 6
58 3
59 1
60 7
61 9
62 8
63 3
64 9
65 5
66 8
67 1
68 1
69 7
70 4
71 10
72 6
73 3
74 8
75 10
76 8
77 3
78 3
79 5
80 6
81 9
82 9
83 10
84 8
85 10
86 3
87 5
88 6
89 4
90 2
91 6
92 2
93 9
94 3
95 10
96 6
97 5
98 1
99 10
100 5
101 6
102 9
103 6
104 2
105 7
106 1
107 8
108 8
109 6
110 1
111 8
112 1
113 6
114 7
115 6
116 6
117 10
118 2
119 4
120 6
121 9
122 10
123 6
124 2
125 7
126 8
127 3
128 3
129 1
130 2
131 3
132 8
133 7
134 3
135 6
136 1
137 3
138 5
139 1
140 9
141 5
142 1
143 1
144 3
145 10
146 9
147 4
148 2
149 9
150 3
151 7
152 2
153 9
154 8
155 10
156 10
157 1
158 1
159 6
160 6
161 3
162 3
163 1
164 3
165 7
166 8
167 1
168 9
169 1
170 3
171 7
172 9
173 10
174 6
175 3
176 8
177 7
178 7
179 3
180 9
181 9
182 5
183 9
184 3
185 5
186 7
187 4
188 6
189 1
190 5
191 7
192 1
193 2
194 7
195 10
196 10
197 8
198 1
199 6
200 9
201 7
202 2
203 9
204 7
205 6
206 9
207 1
208 4
209 3
210 5
211 5
212 6
213 9
214 8
215 3
216 9
217 8
218 10
219 6
220 6
221 5
222 2
223 4
224 3
225 6
226 9
227 3
228 10
229 8
230 3
231 6
232 9
233 2
234 9
235 7
236 8
237 2
238 1
239 8
240 4
241 9
242 4
243 3
244 5
245 6
246 3
247 2
248 2
249 4
250 8
251 2
252 6
253 4
254 1
255 10
256 8
257 7
258 1
259 9

# Durations (p)
1 180
2 541
3 42
4 192
5 120
6 302
7 367
8 93
9 155
10 210
11 330
12 60
13 359
14 62
15 425
16 503
17 132
18 288
19 141
20 204
21 303
22 273
23 27
24 466
25 509
26 150
27 536
28 228
29 302
30 37
31 110
32 95
33 370
34 32
35 317
36 259
37 66
38 129
39 550
40 129
41 193
42 56
43 75
44 52
45 504
46 180
47 290
48 118
49 332
50 137
51 144
52 136
53 234
54 209
55 150
56 215
57 510
58 233
59 485
60 153
61 206
62 287
63 147
64 112
65 578
66 301
67 72
68 110
69 245
70 297
71 335
72 206
73 192
74 543
75 62
76 117
77 98
78 324
79 221
80 548
81 146
82 162
83 283
84 466
85 236
86 499
87 437
88 183
89 86
90 266
91 173
92 508
93 65
94 326
95 27
96 97
97 269
98 228
99 139
100 619
101 237
102 163
103 172
104 221
105 521
106 112
107 185
108 64
109 194
110 454
111 198
112 273
113 75
114 514
115 204
116 72
117 124
118 282
119 74
120 446
121 501
122 538
123 486
124 143
125 244
126 493
127 40
128 178
129 119
130 478
131 621
132 98
133 376
134 218
135 196
136 412
137 132
138 107
139 189
140 505
141 416
142 207
143 88
144 554
145 349
146 299
147 158
148 286
149 276
150 202
151 26
152 219
153 212
154 37
155 164
156 446
157 50
158 135
159 221
160 104
161 371
162 132
163 543
164 512
165 263
166 438
167 370
168 59
169 332
170 115
171 80
172 358
173 222
174 514
175 519
176 218
177 356
178 141
179 547
180 369
181 384
182 328
183 379
184 223
185 96
186 44
187 316
188 512
189 81
190 210
191 283
192 254
193 122
194 38
195 140
196 293
197 284
198 27
199 379
200 425
201 40
202 58
203 479
204 510
205 23
206 98
207 32
208 481
209 113
210 63
211 122
212 93
213 151
214 394
215 31
216 223
217 109
218 406
219 176
220 203
221 83
222 165
223 450
224 476
225 50
226 466
227 70
228 24
229 261
230 232
231 214
232 21
233 79
234 360
235 179
236 140
237 392
238 112
239 67
240 101
241 179
242 135
243 62
244 47
245 161
246 175
247 184
248 255
249 102
250 161
251 229
252 395
253 514
254 177
255 239
256 129
257 464
258 178
259 63

orderrules
1 17 au000 avant au016
2 18 au001 avant au017
3 21 au002 avant au020
4 23 au003 avant au022
5 24 au004 avant au023
6 25 au005 avant au024
7 26 au006 avant au025
8 27 au007 avant au026
9 19 au008 avant au018
9 20 au008 avant au019
10 22 au009 avant au021
10 198 au009 avant au197
11 32 au010 avant au031
11 33 au010 avant au032
11 35 au010 avant au034
12 29 au011 avant au028
15 28 au014 avant au027
15 31 au014 avant au030
16 30 au015 avant au029
16 34 au015 avant au033
17 42 au016 avant au041
18 38 au017 avant au037
19 36 au018 avant au035
20 37 au019 avant au036
21 43 au020 avant au042
22 39 au021 avant au038
23 44 au022 avant au043
24 40 au023 avant au039
25 41 au024 avant au040
26 42 au025 avant au041
27 42 au026 avant au041
29 49 au028 avant au048
30 51 au029 avant au050
30 217 au029 avant au216
31 50 au030 avant au049
32 48 au031 avant au047
34 45 au033 avant au044
34 46 au033 avant au045
35 47 au034 avant au046
36 52 au035 avant au051
37 53 au036 avant au052
38 54 au037 avant au053
39 55 au038 avant au054
40 59 au039 avant au058
41 56 au040 avant au055
42 58 au041 avant au057
42 110 au041 avant au109
43 66 au042 avant au065
43 67 au042 avant au066
44 70 au043 avant au069
45 57 au044 avant au056
45 68 au044 avant au067
46 60 au045 avant au059
46 69 au045 avant au068
47 61 au046 avant au060
47 64 au046 avant au063
48 62 au047 avant au061
49 65 au048 avant au064
51 63 au050 avant au062
52 71 au051 avant au070
53 72 au052 avant au071
54 73 au053 avant au072
55 77 au054 avant au076
56 74 au055 avant au073
57 75 au056 avant au074
58 76 au057 avant au075
59 78 au058 avant au077
60 79 au059 avant au078
61 80 au060 avant au079
62 84 au061 avant au083
63 155 au062 avant au154
64 89 au063 avant au088
64 91 au063 avant au090
65 90 au064 avant au089
66 81 au065 avant au080
66 85 au065 avant au084
68 86 au067 avant au085
68 87 au067 avant au086
68 156 au067 avant au155
69 88 au068 avant au087
70 82 au069 avant au081
70 83 au069 avant au082
71 97 au070 avant au096
72 92 au071 avant au091
73 97 au072 avant au096
74 93 au073 avant au092
75 97 au074 avant au096
76 99 au075 avant au098
77 94 au076 avant au093
78 95 au077 avant au094
79 101 au078 avant au100
80 96 au079 avant au095
81 107 au080 avant au106
82 108 au081 avant au107
82 213 au081 avant au212
84 104 au083 avant au103
84 220 au083 avant au219
85 109 au084 avant au108
85 110 au084 avant au109
85 119 au084 avant au118
86 100 au085 avant au099
86 102 au085 avant au101
87 98 au086 avant au097
87 103 au086 avant au102
89 106 au088 avant au105
90 111 au089 avant au110
91 105 au090 avant au104
92 117 au091 avant au116
93 118 au092 avant au117
94 119 au093 avant au118
95 113 au094 avant au112
96 116 au095 avant au115
97 119 au096 avant au118
98 112 au097 avant au111
98 124 au097 avant au123
99 122 au098 avant au121
99 125 au098 avant au124
100 114 au099 avant au113
102 115 au101 avant au114
106 120 au105 avant au119
106 121 au105 avant au120
108 126 au107 avant au125
109 123 au108 avant au122
110 155 au109 avant au154
112 127 au111 avant au126
113 128 au112 avant au127
114 129 au113 avant au128
115 131 au114 avant au130
116 130 au115 avant au129
118 133 au117 avant au132
118 134 au117 avant au133
118 136 au117 avant au135
118 141 au117 avant au140
120 139 au119 avant au138
120 140 au119 avant au139
121 132 au120 avant au131
121 137 au120 avant au136
122 142 au121 avant au141
123 138 au122 avant au137
123 193 au122 avant au192
124 132 au123 avant au131
124 135 au123 avant au134
125 143 au124 avant au142
125 256 au124 avant au255
126 144 au125 avant au143
127 146 au126 avant au145
128 156 au127 avant au155
129 157 au128 avant au156
130 152 au129 avant au151
131 149 au130 avant au148
132 145 au131 avant au144
132 150 au131 avant au149
133 147 au132 avant au146
133 162 au132 avant au161
134 148 au133 avant au147
134 164 au133 avant au163
135 151 au134 avant au150
135 163 au134 avant au162
136 153 au135 avant au152
136 161 au135 avant au160
137 160 au136 avant au159
137 238 au136 avant au237
139 154 au138 avant au153
139 155 au138 avant au154
141 158 au140 avant au157
141 165 au140 avant au164
143 159 au142 avant au158
145 167 au144 avant au166
146 168 au145 avant au167
147 169 au146 avant au168
148 170 au147 avant au169
149 173 au148 avant au172
150 174 au149 avant au173
151 175 au150 avant au174
152 172 au151 avant au171
153 176 au152 avant au175
154 166 au153 avant au165
155 171 au154 avant au170
157 180 au156 avant au179
158 179 au157 avant au178
158 182 au157 avant au181
158 219 au157 avant au218
159 177 au158 avant au176
161 181 au160 avant au180
164 178 au163 avant au177
166 184 au165 avant au183
167 185 au166 avant au184
168 191 au167 avant au190
169 192 au168 avant au191
170 187 au169 avant au186
171 188 au170 avant au187
172 189 au171 avant au188
173 190 au172 avant au189
174 191 au173 avant au190
175 191 au174 avant au190
176 195 au175 avant au194
177 183 au176 avant au182
177 197 au176 avant au196
177 199 au176 avant au198
177 202 au176 avant au201
178 186 au177 avant au185
178 200 au177 avant au199
179 194 au178 avant au193
179 198 au178 avant au197
181 193 au180 avant au192
182 196 au181 avant au195
182 201 au181 avant au200
183 203 au182 avant au202
184 209 au183 avant au208
185 204 au184 avant au203
186 205 au185 avant au204
187 206 au186 avant au205
188 211 au187 avant au210
189 212 au188 avant au211
190 213 au189 avant au212
191 210 au190 avant au209
191 214 au190 avant au213
192 219 au191 avant au218
193 207 au192 avant au206
194 208 au193 avant au207
195 220 au194 avant au219
195 221 au194 avant au220
195 222 au194 avant au221
199 215 au198 avant au214
200 217 au199 avant au216
202 216 au201 avant au215
202 218 au201 avant au217
203 233 au202 avant au232
204 224 au203 avant au223
205 223 au204 avant au222
206 227 au205 avant au226
207 228 au206 avant au227
208 230 au207 avant au229
209 225 au208 avant au224
209 229 au208 avant au228
209 231 au208 avant au230
209 236 au208 avant au235
209 237 au208 avant au236
210 226 au209 avant au225
210 238 au209 avant au237
213 243 au212 avant au242
214 232 au213 avant au231
216 242 au215 avant au241
218 234 au217 avant au233
218 235 au217 avant au234
218 240 au217 avant au239
219 239 au218 avant au238
219 241 au218 avant au240
220 233 au219 avant au232
223 244 au222 avant au243
224 256 au223 avant au255
225 245 au224 avant au244
226 246 au225 avant au245
227 258 au226 avant au257
228 248 au227 avant au247
229 249 au228 avant au248
230 251 au229 avant au250
231 250 au230 avant au249
232 254 au231 avant au253
233 252 au232 avant au251
234 247 au233 avant au246
235 253 au234 avant au252
236 255 au235 avant au254
236 256 au235 avant au255
237 257 au236 avant au256
239 259 au238 avant au258
